CMD:
./solvers/bin/cadical --plain --no-reduce -t 1600 ./data/cnfs//picorv32-check-p12/picorv32-check-p12.97.cnf

c --- [ banner ] -------------------------------------------------------------
c 
c CaDiCaL SAT Solver
c Copyright (c) 2016-2024
c A. Biere, M. Fleury, N. Froleyks, K. Fazekas, F. Pollitt, T. Faller
c JKU Linz, University of Freiburg, TU Wien
c 
c Version 2.1.3 5296d3d2a9bf48c154ab2acb5e44625776d821bf
c g++ (Gentoo 12.3.1_p20230526 p2) 12.3.1 20230526 -Wall -Wextra -O3 -DNDEBUG
c Sat Aug 9 07:26:21 PDT 2025 Linux cedar2.int.cedar.computecanada.ca 5.14.0-362.24.2.el9_3.x86_64 x86_64
c 
c --- [ limit ] --------------------------------------------------------------
c 
c setting time limit to 1600 seconds real time (due to '-t 1600')
c 
c --- [ parsing input ] ------------------------------------------------------
c 
c reading DIMACS file from './data/cnfs//picorv32-check-p12/picorv32-check-p12.97.cnf'
c opening file to read './data/cnfs//picorv32-check-p12/picorv32-check-p12.97.cnf'
c found 'p cnf 1879741 5549170' header
c parsed 5549170 clauses in 0.92 seconds process time
c 
c --- [ options ] ------------------------------------------------------------
c 
c   --compact=false                (different from default 'true')
c   --decompose=false              (different from default 'true')
c   --deduplicate=false            (different from default 'true')
c   --elim=false                   (different from default 'true')
c   --probe=false                  (different from default 'true')
c   --reduce=false                 (different from default 'true')
c   --subsume=false                (different from default 'true')
c   --ternary=false                (different from default 'true')
c   --transred=false               (different from default 'true')
c   --vivify=false                 (different from default 'true')
c 
c --- [ solving ] ------------------------------------------------------------
c 
c time measured in process time since initialization
c 
c  seconds   reductions  redundant   irredundant
c          MB    restarts       trail         variables
c           level   conflicts       glue            remaining
c 
c *  0.92 856  0 0   0    0    0  0% 0 5495178 1848038 98%
c {  1.31 879  0 0   0    0    0  0% 0 5495178 1848038 98%
c i  1.48 885 46 0   0    9    5 18% 1 5495178 1847862 98%
c i  1.65 886 609 0   6  824  728  8% 2 5495178 1847856 98%
c i  1.94 886 536 0  46  952  853  8% 3 5495178 1847855 98%
c i  1.95 886 536 0  47  953  853  8% 3 5495178 1847854 98%
c }  2.19 886 516 0  61 1000  899  8% 3 5495178 1847854 98%
c [  2.19 886  0 0  61 1000  899  0% 0 5495178 1847854 98%
c O  2.35 887 4572 0  61 1005  902 26% 2 5495178 1847854 98%
c i  2.35 887 4572 0  61 1005  902 26% 2 5495178 1847853 98%
c i  4.04 889 132 0  61 1891 1737 12% 5 5495178 1847852 98%
c i  4.40 890 133 0  62 2442 2233 11% 6 5495178 1847851 98%
c i  4.77 890 134 0  62 2831 2551 11% 7 5495178 1847849 98%
c i  4.78 890 134 0  62 2850 2566 11% 7 5495178 1847848 98%
c i  4.80 890 138 0  62 2922 2625 11% 7 5495178 1847847 98%
c ]  4.81 890 141 0  62 3000 2700 11% 7 5495178 1847847 98%
c {  4.81 890 516 0  62 3000 2700  8% 3 5495178 1847847 98%
c F  4.82 890 516 0  64 3009 2709  8% 3 5495178 1847847 98%
c i  4.82 890 516 0  64 3010 2709  8% 3 5495178 1847846 98%
c i  5.06 890 491 0  78 3072 2765  8% 3 5495178 1841045 98%
c 
c  seconds    reductions  redundant   irredundant
c          MB     restarts       trail         variables
c            level   conflicts       glue            remaining
c 
c i  5.56 890 437 0 115 3405 3059  9% 3 5495178 1841044 98%
c i  6.23 891 336 0 202 3981 3602  8% 4 5495178 1841043 98%
c i  6.25 891 332 0 209 4006 3623  8% 4 5495178 1841042 98%
c i  6.34 891 305 0 240 4200 3801  8% 4 5495178 1841041 98%
c i  6.34 891 305 0 240 4201 3801  8% 4 5495178 1841040 98%
c i  6.44 891 300 0 247 4252 3846  8% 4 5495178 1841039 98%
c i  6.61 891 282 0 258 4432 3997  8% 4 5495178 1841037 98%
c i  6.62 891 282 0 259 4435 3998  8% 4 5495178 1841036 98%
c i  6.76 891 269 0 277 4579 4135  8% 4 5495178 1841035 98%
c i  6.94 891 257 0 293 4738 4279  8% 4 5495178 1841034 98%
c i  6.95 891 257 0 293 4751 4283  8% 4 5495178 1841033 98%
c i  6.97 891 256 0 293 4787 4316  8% 4 5495178 1841031 98%
c i  7.09 891 246 0 295 4941 4438  8% 4 5495178 1841030 98%
c i  7.11 891 244 0 297 4957 4452  8% 4 5495178 1841026 98%
c i  7.18 891 236 0 301 5064 4538  8% 4 5495178 1841025 98%
c i  7.20 891 234 0 301 5100 4569  8% 4 5495178 1841024 98%
c i  7.26 891 222 0 301 5317 4759  8% 4 5495178 1841023 98%
c i  7.64 891 213 0 342 5581 5010  8% 4 5495178 1841022 98%
c i  7.67 891 209 0 342 5674 5093  8% 4 5495178 1841021 98%
c i  7.68 891 207 0 344 5708 5112  8% 4 5495178 1841020 98%
c 
c  seconds    reductions  redundant   irredundant
c          MB     restarts       trail         variables
c            level   conflicts       glue            remaining
c 
c i  7.72 891 205 0 346 5780 5176  8% 4 5495178 1841019 98%
c i  7.72 891 202 0 346 5845 5224  8% 4 5495178 1841018 98%
c i  7.73 891 201 0 346 5883 5256  8% 4 5495178 1841017 98%
c i  7.75 891 197 0 346 5969 5336  8% 4 5495178 1841016 98%
... skipped 188 lines ...
c i 27.43 906 80 0 1772 30293 25487  7% 4 5353189 1838772 98%
c i 27.52 906 80 0 1786 30345 25537  7% 4 5353189 1838771 98%
c i 27.79 906 80 0 1824 30708 25868  7% 5 5353189 1838755 98%
c 
c  seconds   reductions     redundant   irredundant
c          MB    restarts          trail         variables
c           level     conflicts        glue            remaining
c 
c i 28.08 906 79 0 1857 30920 26059  6% 5 5353189 1838754 98%
c i 28.08 906 79 0 1859 30934 26064  6% 5 5353189 1838753 98%
c i 28.08 906 79 0 1860 30938 26066  6% 5 5353189 1838748 98%
c i 28.08 906 79 0 1860 30939 26066  6% 5 5353189 1838747 98%
c i 28.08 906 79 0 1860 30940 26066  6% 5 5353189 1838725 98%
c } 28.13 906 79 0 1861 31000 26109  6% 5 5353189 1838725 98%
c [ 28.13 906 202 0 1861 31000 26109 11% 9 5353189 1838725 98%
c i 28.20 906 201 0 1861 31067 26164 11% 9 5353189 1838701 98%
c i 28.60 906 203 0 1861 31405 26456 11% 9 5353189 1838700 98%
c i 28.81 906 200 0 1861 31600 26618 11% 9 5353189 1838689 98%
c i 29.08 906 193 0 1861 32013 26997 11% 8 5353189 1838669 98%
c i 29.22 906 190 0 1861 32196 27154 11% 8 5353189 1838668 98%
c i 29.56 906 182 0 1861 32829 27711 11% 8 5353189 1838622 98%
c i 29.63 906 180 0 1861 32944 27801 11% 8 5353189 1838621 98%
c i 30.10 906 175 0 1861 33390 28191 11% 8 5353189 1838620 98%
c i 30.10 906 175 0 1861 33406 28206 11% 8 5353189 1838619 98%
c i 30.37 906 172 0 1861 33715 28480 11% 8 5353189 1838618 98%
c i 30.39 906 172 0 1861 33731 28495 11% 8 5353189 1838484 98%
c i 30.39 906 172 0 1861 33740 28502 11% 8 5353189 1838414 98%
c i 30.56 906 170 0 1862 33931 28667 11% 8 5353189 1752164 93%
c 
c  seconds    reductions     redundant   irredundant
c          MB     restarts          trail         variables
c            level     conflicts        glue            remaining
c 
c i 30.60 906 170 0 1862 33962 28696 11% 8 5353189 1752084 93%
c i 30.82 906 168 0 1862 34177 28849 11% 8 5353189 1749940 93%
c i 30.83 906 168 0 1862 34183 28851 11% 8 5353189 1749939 93%
c i 30.86 906 167 0 1862 34207 28869 11% 8 5353189 1749918 93%
c i 30.88 906 167 0 1862 34218 28875 11% 8 5353189 1749878 93%
c i 30.90 906 167 0 1862 34235 28885 11% 8 5353189 1749877 93%
c i 30.92 906 167 0 1862 34248 28894 11% 8 5353189 1749438 93%
c i 30.94 906 167 0 1862 34250 28893 11% 8 5353189 1746141 93%
c i 31.25 906 164 0 1862 34559 29174 11% 8 5353189 1693986 90%
c i 31.27 906 164 0 1862 34564 29177 11% 8 5353189 1692580 90%
c i 31.32 906 163 0 1862 34597 29204 11% 8 5353189 1692185 90%
c ] 31.35 906 163 0 1862 34613 29212 11% 8 5353189 1653096 88%
c 0 31.35 906 163 0 1862 34613 29212 11% 8 5353189 1653096 88%
c 
c --- [ result ] -------------------------------------------------------------
c 
s UNSATISFIABLE
c 
c --- [ run-time profiling ] -------------------------------------------------
c 
c process time taken by individual solving procedures
c (percentage relative to process time for solving)
c 
c        30.43  100.00% search
c        18.04   59.29% unstable
c        10.32   33.92% stable
c         1.68    5.50% walk
c         0.92    3.02% parse
c         0.39    1.29% lucky
c         0.00    0.00% simplify
c   =================================
c        30.43   97.07% solve
c 
c last line shows process time for solving
c (percentage relative to total process time)
c 
c --- [ statistics ] ---------------------------------------------------------
c 
c chronological:             15532        44.87 %  of conflicts
c conflicts:                 34613      1137.36    per second
c decisions:                189212      6217.40    per second
c fixed:                    226447        12.05 %  of all variables
c learned:                   32601        94.19 %  per conflict
c learned_lits:             790909       100.00 %  learned literals
c minimized:                     0         0.00 %  learned literals
c shrunken:                 105860        13.38 %  learned literals
c minishrunken:             123231        15.58 %  learned literals
c otfs:                        563         1.63 %  of conflict
c propagations:          376385227        12.37 M  per second
c rephased:                      7      4944.71    interval
c restarts:                   1862        18.59    interval
c stabilizing:                   3        39.32 %  of conflicts
c subsumed:                   1864         0.03 %  of all clauses
c strengthened:                556         0.01 %  of all clauses
c walked:                        1     34613.00    interval
c 
c seconds are measured in process time for solving
c 
c --- [ resources ] ----------------------------------------------------------
c 
c total process time since initialization:        31.35    seconds
c total real time since initialization:           31.49    seconds
c maximum resident set size of process:          946.09    MB
c 
c --- [ shutting down ] ------------------------------------------------------
c 
c exit 20
